
100
9231

756 56
972 72
1134 434
972 372
756 56
486 186
1296 496
1080 80
1458 558
162 62
432 32
972 72
756 56
108 8
486 186
108 8
1620 620
972 372
648 248
972 72
1458 558
864 64
648 48
1134 434
1296 496
324 24
162 62
972 372
1134 434
1134 434
108 8
162 62
972 372
972 372
648 48
486 186
1134 434
648 48
162 62
972 372
1296 496
648 248
1620 620
972 72
972 72
432 32
1620 620
972 72
216 16
486 186
324 24
108 8
810 310
864 64
1080 80
972 72
1458 558
162 62
756 56
756 56
108 8
162 62
108 8
1080 80
108 8
216 16
756 56
324 124
648 248
1080 80
324 124
108 8
648 248
1296 496
756 56
108 8
1620 620
324 24
108 8
972 72
972 72
540 40
756 56
324 124
810 310
216 16
648 48
486 186
324 124
216 16
972 72
1296 496
972 372
972 372
324 24
972 372
810 310
1296 496
972 72
756 56
